NAME /Users/henri/Research/solvers/instances/idol-instances/robust/collection/cbp_Subramanyam_et_al_2020/CapBud_N15_13/models/uncertain_technology_matrix/
ROWS
 N  OBJ
 L  capacity
 L  c_1785
 L  c_1786
 L  c_1787
 L  c_1788
 L  c_1789
 L  c_1790
 L  c_1791
 L  c_1792
 L  c_1793
 L  c_1794
 L  c_1795
 L  c_1796
 L  c_1797
 L  c_1798
 L  c_1799
COLUMNS
    MARKER    'MARKER'                 'INTORG'
    x_0        OBJ        0.271594
    x_0        c_1785     1
    x_0        capacity   0.0543188
    x_1        OBJ        2.87747
    x_1        c_1786     1
    x_1        capacity   0.575494
    x_2        OBJ        1.85878
    x_2        c_1787     1
    x_2        capacity   0.371755
    x_3        OBJ        3.55849
    x_3        c_1788     1
    x_3        capacity   0.711699
    x_4        OBJ        2.84096
    x_4        c_1789     1
    x_4        capacity   0.568192
    x_5        OBJ        8.43046
    x_5        c_1790     1
    x_5        capacity   1.68609
    x_6        OBJ        5.24463
    x_6        c_1791     1
    x_6        capacity   1.04893
    x_7        OBJ        1.29394
    x_7        c_1792     1
    x_7        capacity   0.258789
    x_8        OBJ        3.8577
    x_8        c_1793     1
    x_8        capacity   0.77154
    x_9        OBJ        6.65948
    x_9        c_1794     1
    x_9        capacity   1.3319
    x_10       OBJ        8.82985
    x_10       c_1795     1
    x_10       capacity   1.76597
    x_11       OBJ        4.61186
    x_11       c_1796     1
    x_11       capacity   0.922371
    x_12       OBJ        9.18147
    x_12       c_1797     1
    x_12       capacity   1.83629
    x_13       OBJ        7.96326
    x_13       c_1798     1
    x_13       capacity   1.59265
    x_14       OBJ        0.758641
    x_14       c_1799     1
    x_14       capacity   0.151728
    y_0        OBJ        0.217275
    y_0        c_1785     1
    y_0        capacity   0.0543188
    y_1        OBJ        2.30198
    y_1        c_1786     1
    y_1        capacity   0.575494
    y_2        OBJ        1.48702
    y_2        c_1787     1
    y_2        capacity   0.371755
    y_3        OBJ        2.84679
    y_3        c_1788     1
    y_3        capacity   0.711699
    y_4        OBJ        2.27277
    y_4        c_1789     1
    y_4        capacity   0.568192
    y_5        OBJ        6.74437
    y_5        c_1790     1
    y_5        capacity   1.68609
    y_6        OBJ        4.1957
    y_6        c_1791     1
    y_6        capacity   1.04893
    y_7        OBJ        1.03515
    y_7        c_1792     1
    y_7        capacity   0.258789
    y_8        OBJ        3.08616
    y_8        c_1793     1
    y_8        capacity   0.77154
    y_9        OBJ        5.32758
    y_9        c_1794     1
    y_9        capacity   1.3319
    y_10       OBJ        7.06388
    y_10       c_1795     1
    y_10       capacity   1.76597
    y_11       OBJ        3.68949
    y_11       c_1796     1
    y_11       capacity   0.922371
    y_12       OBJ        7.34517
    y_12       c_1797     1
    y_12       capacity   1.83629
    y_13       OBJ        6.37061
    y_13       c_1798     1
    y_13       capacity   1.59265
    y_14       OBJ        0.606913
    y_14       c_1799     1
    y_14       capacity   0.151728
    MARKER    'MARKER'                 'INTEND'
RHS
    RHS       capacity   34.1193
    RHS       c_1785     1
    RHS       c_1786     1
    RHS       c_1787     1
    RHS       c_1788     1
    RHS       c_1789     1
    RHS       c_1790     1
    RHS       c_1791     1
    RHS       c_1792     1
    RHS       c_1793     1
    RHS       c_1794     1
    RHS       c_1795     1
    RHS       c_1796     1
    RHS       c_1797     1
    RHS       c_1798     1
    RHS       c_1799     1
BOUNDS
 LI BND       x_0        0
 UI BND       x_0        1
 LI BND       x_1        0
 UI BND       x_1        1
 LI BND       x_2        0
 UI BND       x_2        1
 LI BND       x_3        0
 UI BND       x_3        1
 LI BND       x_4        0
 UI BND       x_4        1
 LI BND       x_5        0
 UI BND       x_5        1
 LI BND       x_6        0
 UI BND       x_6        1
 LI BND       x_7        0
 UI BND       x_7        1
 LI BND       x_8        0
 UI BND       x_8        1
 LI BND       x_9        0
 UI BND       x_9        1
 LI BND       x_10       0
 UI BND       x_10       1
 LI BND       x_11       0
 UI BND       x_11       1
 LI BND       x_12       0
 UI BND       x_12       1
 LI BND       x_13       0
 UI BND       x_13       1
 LI BND       x_14       0
 UI BND       x_14       1
 LI BND       y_0        0
 UI BND       y_0        1
 LI BND       y_1        0
 UI BND       y_1        1
 LI BND       y_2        0
 UI BND       y_2        1
 LI BND       y_3        0
 UI BND       y_3        1
 LI BND       y_4        0
 UI BND       y_4        1
 LI BND       y_5        0
 UI BND       y_5        1
 LI BND       y_6        0
 UI BND       y_6        1
 LI BND       y_7        0
 UI BND       y_7        1
 LI BND       y_8        0
 UI BND       y_8        1
 LI BND       y_9        0
 UI BND       y_9        1
 LI BND       y_10       0
 UI BND       y_10       1
 LI BND       y_11       0
 UI BND       y_11       1
 LI BND       y_12       0
 UI BND       y_12       1
 LI BND       y_13       0
 UI BND       y_13       1
 LI BND       y_14       0
 UI BND       y_14       1
ENDATA
